S020

VEHICLE
NUMBER     CAPACITY
  25         200

CUSTOMER
CUST NO.   XCOORD.    YCOORD.    DEMAND   READY TIME   DUE DATE   SERVICE TIME
 
    0      40         50          0          0        240          0   
    1      25         85         20        125        191         10   
    2      22         75         30         32         97         10   
    3      22         85         10        101        146         10   
    4      20         80         40         71        193         10   
    5      20         85         20         40        113         10   